unsat
(:binary-propagations  16
 :conflicts            1
 :final-checks         1
 :max-generation       1
 :max-memory           30.22
 :memory               22.71
 :mk-bool-var          5144
 :mk-clause            1764
 :mk-clause-binary     6685
 :num-allocs           138730731
 :num-checks           1
 :propagations         16
 :quant-instantiations 966
 :restarts             1
 :rlimit-count         717769
 :time                 0.15)
